Layer                                   
   1.00000000000000     
    17.1464996338000013    0.0000000000000000    0.0000000000000000
    -8.5015810907000002   14.8077168604999994    0.0000000000000000
     0.0000000000000000    0.0000000000000000   29.2078990935999983
   Ag   Pd   F    O 
    97    72    25     2
Direct
  0.3198117647099045  0.3398851896067526  0.0285557829558544
  0.2196245275159436  0.1083367001163876  0.1075874241955463
  0.1140723783474404  0.2263095064785808  0.1881618203108963
  0.9952234563376436  1.0093643837867436  0.2783323397036431
  0.3183783533481729  0.1714215829918184  0.0200234204410175
  0.2215027482632537  0.2716654948329894  0.1085783674297532
  0.1130188824393157  0.0615191627611576  0.1964429590705388
  1.0004571542527625  0.1769094679103209  0.2665773728318795
  0.6603336507040209  0.3431939249526288  0.0296056742412076
  0.5454268599059533  0.1148176824616143  0.1074962011619215
  0.4324111407288160  0.2146338088804213  0.1907191750550910
  0.3385245083085077  1.0056540447820301  0.2702229412773909
  0.6543948316943444  0.1697394924384780  0.0254637108461949
  0.5471630907934633  0.2870478664478768  0.1112951152014974
  0.4414700216979368  0.0635652691699835  0.1897991062736059
  0.3287840670501420  0.1624600464358499  0.2755461334889792
 -0.0083855709408990  0.3261031076211522  0.0275312775801609
  0.8923525704004027  0.1188317514914881  0.1136341152810156
  0.7701619033118586  0.2203355224062945  0.1876852998107339
  0.6591541868846125  1.0033968835039841  0.2709011846778110
 -0.0140958811044521  0.1619452825541273  0.0306528648990722
  0.8821616827137579  0.2814039297615886  0.1087650035031468
  0.7675535622777606  0.0586543593265105  0.1869465440756134
  0.6756818556494215  0.1678523644710946  0.2689828203801015
  0.3251419154660888  0.6630277154301978  0.0304745025933765
  0.2224366499487695  0.4457629498616999  0.1138736206587148
  0.1191459200410636  0.5697266265607435  0.1863605582520227
  0.9933312073306654  0.3374103681250578  0.2685560451601966
  0.3245825180830419  0.5037368653986638  0.0355023545689451
  0.2201745012262090  0.6155650520751793  0.1070568211751601
  0.1132119022446436  0.4017734338335501  0.1912789472923063
  0.9988254174120639  0.5052766086623955  0.2706318794651061
  0.6553071684195073  0.6711986803385821  0.0284452789060846
  0.5457029352617834  0.4475487557415830  0.1096857832770554
  0.4391792708108460  0.5604103658307521  0.1877086082257450
  0.3377791144729536  0.3357423155839713  0.2717116599725073
  0.6564382448306503  0.5057435188682773  0.0331621297141087
  0.5455428891316721  0.6116546121831236  0.1112967901257597
  0.4396037304174975  0.3825499495401953  0.1907085593706382
  0.3346965227933142  0.5029982484738617  0.2734338359433928
 -0.0120768287179858  0.6595381767353500  0.0229347340861845
  0.8800827083715673  0.4503738844643864  0.1068723846174349
  0.7795441820659724  0.5549313905669591  0.1877818209046949
  0.6694307068127247  0.3410109154712440  0.2666180004588599
 -0.0145019377329703  0.4953749916338212  0.0262522350099454
  0.8861633537729656  0.6204630823352463  0.1067939909394320
  0.7762813051122448  0.3952112997048705  0.1853770454096466
  0.6664970667832715  0.5076439497130146  0.2682915939674759
  0.3242763648713376  0.0022110851897578  0.0255364521096995
  0.2094533491870077  0.7831788354007432  0.1028763664965954
  0.1017636320319171  0.8994412282643505  0.1917366875936705
  1.0090475726058079  0.6837191753756137  0.2671873650508642
  0.3129097206917255  0.8320116963531494  0.0199560821517362
  0.2162973844081069  0.9467361141722924  0.1072739149967388
  0.1062222712301891  0.7275896832608107  0.1856014965951686
  0.9828642733170742  0.8277477880751917  0.2777796195371439
  0.6545824322902001  0.0044802347953534  0.0303503709565963
  0.5470262232128902  0.7849331430175740  0.1140200539708656
  0.4392539318147895  0.8975308681992301  0.1876171731112261
  0.3253166271354865  0.6738565603563912  0.2728222799273717
  0.6511989484187302  0.8361911630602676  0.0257404178644123
  0.5461991476556386  0.9496492723841911  0.1039716231506568
  0.4290108934089401  0.7192138911917419  0.1924829720145426
  0.3359769625330645  0.8421619364766153  0.2681444177751473
 -0.0204588373764116 -0.0035238558024524  0.0223656889639701
  0.8681237986107854  0.7673859622742956  0.1102005363690713
  0.7629397597390553  0.8955276798380243  0.1910676638504528
  0.6502927569406962  0.6617011166853866  0.2702364098865520
 -0.0223615777072328  0.8347987866498147  0.0250594299939598
  0.8824438642513319  0.9533766538460235  0.1102746647140141
  0.7701134058719937  0.7240704344731825  0.1899146380152298
  0.6626318423738106  0.8391170770868233  0.2722889428349207
  0.9681725326306705 -0.0611515267572578  0.3927269690119590
  0.2268371969471478  0.9673164671871961  0.3460841351022387
  0.4003482589001858  0.9704919016140997  0.3533816530701370
  0.6312526876232273  1.0714862381999777  0.3555518097067347
  0.8976743686314812  1.1323886478820628  0.3488869710281682
  0.0921581114865782  0.2060831791871113  0.3519257900420849
  0.2008621280194708  0.1251326946546277  0.3941348219803478
  0.4277285237476523  0.1548191314262601  0.3475420318617299
  0.6203948092110259  0.2246192834142842  0.3471890895622649
  0.8054747535224313  0.2466776262727675  0.3380083058004729
  0.1143694227901911  0.4033657251355904  0.3572569006754809
  0.2702327097039331  0.3639178916603015  0.3553479629647925
  0.4399737922566758  0.3704260683423483  0.3602454047867959
  0.6887146527518557  0.4369080147056204  0.3506027560907330
  0.8830767228658369  0.4411820078196422  0.3499647311414932
  1.0438570527314968  0.6194204895097564  0.4169266419032325
  0.1998035454159381  0.6095214880134897  0.3463536600115594
  0.3812814648769589  0.6013275970250874  0.3501098915968729
  0.5372640742191607  0.5907913145655073  0.3509332457281182
  0.8835861677674846  0.6288399489743500  0.3494320183580464
  1.0363026077249820  0.8188467162819335  0.4188317963520743
  0.2065108689939291  0.7957393953868811  0.3467881632099962
  0.3750661349075195  0.7817795691796824  0.3511730707010191
  0.5602136341404476  0.7830718378121089  0.3566062676919957
  0.7648074733443340  0.6842350407948219  0.3542144783080847
  0.1587980950357945  0.1667420593850193  0.0289853512182592
  0.0462587190882496  0.2701691622070660  0.1097420814797264
  0.2659500172930634  0.0538498497469337  0.1949925622525913
  0.1606861445993909  0.1773445847400575  0.2744331432465129
  0.1629840098944580  0.3473817959268225  0.0346180293558384
  0.0553158938221747  0.1075804881294712  0.1090470904777847
  0.2767827029682750  0.2266596570419076  0.1985608346676945
  0.1650804926635663  1.0160012598750057  0.2710581312710657
  0.4919100498209872  0.1665449867450138  0.0348975364904631
  0.3763667995763134  0.2704717014284501  0.1085878179267594
  0.5981762465669900  0.0641627025910125  0.1909323132147552
  0.5113733536771691  0.1872764804100522  0.2675228806790685
  0.4913092845103061  0.3322635214891732  0.0334808842670447
  0.3825859752292550  0.1134674985330588  0.1062285781078270
  0.6100415799317312  0.2308973884010063  0.1862561657226323
  0.5019693018733860  1.0164905989884787  0.2726995028577890
  0.8178829151740988  0.1754381726534825  0.0259514249434848
  0.7145112614947651  0.2782219709163236  0.1036217384815255
  0.9480711563089742  0.0651502234892150  0.1891706500109339
  0.8399282391932107  0.1785242937008990  0.2623958403122117
  0.8199716203887972  0.3360662593417093  0.0292162480553879
  0.7125824565147653  0.1180562137295076  0.1054609779345956
  0.9384436666383901  0.2226952211828585  0.1866328713191772
  0.8356390656999610  1.0180816797423322  0.2663132086537354
  0.1628257892488698  0.5054961131757369  0.0315780451320162
  0.0575539728180184  0.6164328505450432  0.1088499170853961
  0.2766743922254635  0.3832219461497607  0.1911744863231522
  0.1632851639874990  0.5028024770513281  0.2693223927193626
  0.1501221024189722  0.6592257347277364  0.0286277057297353
  0.0550689711257388  0.4477789328998469  0.1072138762396170
  0.2692782595866447  0.5524864347162827  0.1929181682241714
  0.1680582574153624  0.3401814648496646  0.2794677359410347
  0.4859849226033875  0.5074553892348440  0.0321783338723086
  0.3808415799230858  0.6177081672175885  0.1140813561599564
  0.6107089877965580  0.3950632163942646  0.1902159440562931
  0.4980520065324228  0.4978745026636593  0.2659228119656148
  0.4865203807733051  0.6740234010598356  0.0369053694074030
  0.3811722906215516  0.4551966748186707  0.1100736650802586
  0.6032145004117476  0.5542484895640090  0.1885312865253195
  0.5036120022353299  0.3429096490451038  0.2723634093411371
  0.8303907821843258  0.5049919478389578  0.0315442420498684
  0.7084536599153589  0.6094310478288465  0.1130012575027989
  0.9426619104276688  0.4031540225595055  0.1840877966552213
  0.8343163009733373  0.5109412113103775  0.2715149495501878
  0.8142418083468873  0.6577250505082870  0.0298654083103180
  0.7182148450449880  0.4488861975783296  0.1106915609769351
  0.9372625049252610  0.5546300623223539  0.1898689794037153
  0.8364856671311058  0.3446924650649325  0.2654195436307185
  0.1407004852565770  0.8307174717295819  0.0255437960004448
  0.0475286696105953  0.9476503081594365  0.1069268781574389
  0.2703148853448321  0.7308039674307966  0.1875399100309794
  0.1697149655351411  0.8585608849243390  0.2688370426977108
  0.1510802704214003  0.0029591378178041  0.0281015153858638
  0.0467080315548667  0.7868698209658754  0.1063399433418218
  0.2787975459939241  0.8986080742085135  0.1916322520161861
  0.1678560783402919  0.6790944088681919  0.2671271618828973
  0.4883903821933693  0.8396143552302316  0.0300719902059785
  0.3786995857022317  0.9467031971832928  0.1040871586982886
  0.5999339510384071  0.7231298368613266  0.1931628567606718
  0.4960200567136395  0.8358171113307932  0.2743145469998760
  0.4817682303209257 -0.0045261630724891  0.0269869642955295
  0.3823375081478309  0.7867445856506934  0.1066691487217131
  0.5958003204534484  0.8911617620898605  0.1931899653698851
  0.5022118411721029  0.6724632532139955  0.2725286141036530
  0.8156837754657275  0.8382765798679305  0.0351760977403515
  0.7101489719156253  0.9532936313224415  0.1078627554962183
  0.9422331191058801  0.7203912636197360  0.1888173958953873
  0.8302788773286066  0.8400759055444519  0.2663795605449513
  0.8194507959391325  0.0036150638227080  0.0350441156443108
  0.7104898055122253  0.7788174875938817  0.1110487293985948
  0.9374321032970304  0.9002456264045495  0.1889279482331083
  0.8195420419667341  0.6619398672169278  0.2673680021320223
  0.0927360405366190  0.0023911711734730  0.4270600662068535
  0.3172724708993291  0.0986758875561994  0.3987059086341120
  0.5199988992623464  0.1018578043681108  0.3848034864449298
  0.7684646142487096  0.1168188321516490  0.3792479536562056
  0.9859339003785740  0.0791580676082537  0.3864045626817967
  0.1783058440239730  0.2616000229705613  0.4103915407187989
  0.2796916774494551  0.2093245884104159  0.3411157705929339
  0.5423788853535799  0.3192178126207578  0.3677586269646202
  0.7502008999114975  0.3443319545036807  0.3894822359869661
  0.9724470924776581  0.3007525845341672  0.3595761771984349
  0.0485180148605111  0.5124353345951711  0.3637276249125883
  0.2443835029353863  0.5094253256692656  0.3846919066486879
  0.4098635751181668  0.4827164888308655  0.3885299483258471
  0.6464224201891631  0.5386019358043070  0.3679340885052321
  0.8970881195668848  0.5596869821013143  0.4082516837953757
  0.0495764352736889  0.6913164471252781  0.3395412792512331
  0.1896821837167805  0.6872192147471727  0.4031107841567175
  0.4317946609869505  0.7213754756808980  0.3963332587993019
  0.6593058314479348  0.7273021200160469  0.3591367582151625
  0.8875625025744112  0.7553671933581583  0.4068743352051839
  0.0755580967934307  0.9626117959808905  0.3283011936816662
  0.1769300351872961  0.8751979735025051  0.4090418551412837
  0.5214943357851607  0.9177905311705650  0.3510273742533223
  0.7492993537777271  0.9659268274211257  0.3203883543321829
  0.8710864548526096  0.8563467857457526  0.3366033227414735
  0.1636661537673778 -1.1106006597959004  0.9637279964082274
  0.1998480022619213 -1.0222930199297857  0.9674527946346116
 
  0.81765667E-03  0.59374348E-04 -0.13976070E-03
  0.49075382E-04  0.47313177E-03  0.25534404E-03
  0.26481392E-02 -0.19818906E-02  0.23174472E-06
  0.12411032E-02 -0.81872396E-03 -0.82380758E-03
 -0.97451653E-03  0.43107313E-04  0.14951096E-02
 -0.73145568E-03  0.12611881E-02  0.62608145E-03
 -0.82648210E-03  0.16696328E-02  0.25336469E-02
  0.29547748E-02  0.47822345E-04  0.44562189E-03
  0.26052823E-03  0.41775399E-03  0.16678717E-02
 -0.58412066E-03 -0.10313454E-02  0.36743299E-03
 -0.96492158E-03 -0.43660854E-03  0.23310752E-02
 -0.48055473E-03 -0.39298779E-03  0.19843551E-02
 -0.30717270E-02 -0.41376817E-03  0.13238736E-02
 -0.13166758E-02 -0.82030059E-03  0.15217748E-02
 -0.26444184E-02 -0.74752617E-03  0.11861941E-02
  0.28802258E-02 -0.36648777E-02 -0.85443992E-03
 -0.30927736E-03 -0.10988033E-02 -0.41390198E-03
 -0.67435052E-03 -0.87715265E-03 -0.31437446E-05
 -0.67256613E-04  0.45541801E-03 -0.19067989E-02
 -0.10743722E-02  0.82719343E-03 -0.17588008E-02
  0.13976908E-02 -0.23940094E-03 -0.12982190E-03
  0.13155710E-02 -0.22352416E-03  0.23634330E-02
  0.20148266E-02 -0.34518251E-02  0.10416217E-03
  0.94374646E-03 -0.30227622E-02 -0.20670204E-02
 -0.60624975E-04 -0.91565589E-03 -0.14342923E-02
  0.45492340E-03 -0.98496252E-03 -0.78639049E-03
 -0.25855340E-02  0.16152893E-02  0.47227178E-03
 -0.31605950E-03  0.40637608E-03  0.19866551E-02
  0.21290734E-02 -0.13148989E-02 -0.19394974E-02
 -0.13434191E-02  0.19610758E-02 -0.33244341E-03
  0.45963451E-03  0.12792018E-02  0.16130372E-03
  0.10633971E-02  0.73232969E-03 -0.26726803E-02
 -0.13529322E-03 -0.25948310E-02 -0.19460004E-02
 -0.19452158E-02  0.36846724E-03 -0.35542813E-02
  0.43582469E-03 -0.77235218E-03 -0.98123828E-03
 -0.38792584E-03 -0.81450136E-03  0.26817703E-03
 -0.34645804E-03 -0.43966438E-03  0.15589640E-02
  0.57327815E-03  0.99971305E-03 -0.21192050E-02
 -0.45647752E-03 -0.22648537E-03 -0.11957140E-02
  0.40928550E-03 -0.13373588E-02 -0.30860432E-03
  0.18778609E-02  0.27087521E-04 -0.19770883E-02
 -0.14023120E-02 -0.63598876E-03  0.43004283E-03
 -0.22520061E-02 -0.23024588E-02 -0.21674893E-02
  0.29867259E-03 -0.25293602E-02 -0.38422399E-02
 -0.74715486E-03  0.87430104E-03 -0.15988670E-02
  0.95342736E-03  0.30600733E-02  0.14835056E-02
  0.67585763E-03 -0.36632806E-04  0.16401085E-02
  0.47439562E-03  0.55847968E-03  0.56767672E-03
 -0.11078218E-03  0.58482804E-03  0.12524287E-02
 -0.26458942E-02 -0.60599982E-03  0.11916329E-02
 -0.15054119E-03 -0.86106456E-03  0.45923818E-04
  0.40464097E-03 -0.62199989E-03 -0.11356086E-02
  0.17628304E-02 -0.97725900E-03  0.21316860E-03
  0.74725873E-03 -0.17285356E-02  0.78660826E-03
 -0.12276099E-02 -0.48462408E-03 -0.70794312E-03
 -0.24735698E-02  0.22835439E-02  0.20754405E-02
  0.25937617E-04 -0.11267896E-02 -0.17763433E-02
  0.18846410E-02 -0.15007413E-02  0.70862876E-03
 -0.31204257E-02  0.19654244E-03  0.22880493E-02
 -0.13756943E-02 -0.26687056E-02 -0.63709126E-03
  0.79980134E-03 -0.31032589E-04  0.12545508E-02
 -0.12581255E-02 -0.79645202E-03  0.20347164E-02
 -0.23810258E-02 -0.34180779E-03 -0.17430852E-02
  0.27499285E-03  0.10033532E-02 -0.66318770E-03
  0.12021147E-02  0.20107577E-02  0.26711395E-02
 -0.10595402E-02  0.23799560E-02  0.93208216E-03
  0.74614799E-03 -0.62274237E-03 -0.45569016E-05
 -0.58361487E-03 -0.76978476E-03 -0.10102748E-02
  0.14630810E-03  0.14786040E-02 -0.15290260E-02
 -0.49243558E-03 -0.23968197E-02  0.88076569E-03
  0.15438894E-02  0.21023883E-02 -0.17333168E-02
 -0.13870556E-03  0.48977821E-03  0.76139979E-03
  0.87578081E-03 -0.86545664E-05  0.20769736E-02
 -0.29840066E-03 -0.13316909E-02  0.62852183E-03
  0.83524136E-03  0.43350341E-03  0.51736688E-03
 -0.51735984E-03  0.17714832E-02 -0.96987613E-03
  0.10183467E-02  0.12146829E-02  0.44179095E-03
  0.56085538E-03 -0.50137166E-03  0.44862012E-03
  0.29461339E-03  0.15583030E-02  0.16408665E-02
 -0.10692708E-02 -0.20873385E-02  0.15491847E-02
 -0.13134473E-02 -0.77182437E-04  0.40918326E-04
  0.18620321E-02  0.33861799E-02 -0.62780758E-04
 -0.22015411E-02 -0.23466605E-02 -0.26706602E-03
 -0.12913293E-02 -0.34985098E-02 -0.87043863E-03
 -0.11979053E-02 -0.11449411E-03  0.15812800E-02
  0.79396285E-03  0.10119899E-02 -0.18313146E-02
  0.17163157E-02  0.28385735E-02 -0.72854639E-03
  0.55994684E-03  0.15275351E-03  0.80938048E-03
  0.15689464E-02 -0.40311183E-03 -0.59400277E-03
 -0.27755849E-03 -0.24991666E-02  0.18055134E-02
  0.31764517E-02  0.26106797E-02  0.20035757E-02
  0.14229589E-02 -0.41403391E-03 -0.33897303E-02
  0.14066351E-02  0.87398997E-03  0.34319929E-03
 -0.14065814E-03 -0.37946942E-03 -0.41321503E-03
 -0.15066982E-02  0.10151464E-02  0.38948224E-03
 -0.26727718E-03  0.47111148E-03  0.22951871E-03
 -0.41568736E-04 -0.83834212E-04  0.92823356E-03
  0.17581609E-02 -0.13634718E-02  0.59824301E-03
 -0.90305162E-03  0.20422477E-02  0.55157548E-03
  0.17982740E-02  0.15740656E-02 -0.47041541E-03
  0.19402918E-02 -0.54214337E-03 -0.17745212E-02
  0.78274208E-03 -0.10206351E-02 -0.20181487E-02
 -0.42988013E-03  0.23988569E-02  0.18531983E-03
 -0.66269477E-03  0.20410590E-02  0.26600265E-02
  0.28234142E-03 -0.10321409E-02 -0.40686060E-02
  0.12327411E-02  0.15561413E-02 -0.14685818E-02
 -0.24927299E-03 -0.12075230E-03 -0.16437815E-02
  0.47830139E-03 -0.92351876E-03 -0.12370940E-02
 -0.30093636E-02  0.28431495E-02  0.34572834E-04
 -0.32593104E-03  0.24361431E-02  0.47741131E-03
  0.26213011E-02 -0.97135413E-03  0.43011529E-03
  0.27411943E-02 -0.49576480E-03  0.20420461E-02
 -0.13442888E-02 -0.28379251E-04 -0.18587149E-04
 -0.11358246E-02 -0.35181376E-03  0.15973973E-03
 -0.36564672E-03  0.28512039E-03 -0.22285862E-03
 -0.59939372E-03 -0.23395733E-02  0.43635442E-04
 -0.11756045E-02  0.67720288E-03  0.18470481E-02
  0.83060330E-03  0.80023860E-03  0.35808430E-03
 -0.14211186E-02  0.23177176E-02  0.31723280E-03
 -0.37005227E-02 -0.21767294E-02 -0.67817210E-03
 -0.89780919E-03  0.37396020E-03 -0.13621011E-02
 -0.64612315E-03 -0.16612356E-02 -0.15629945E-02
 -0.28166483E-03 -0.32467245E-02  0.14396931E-02
  0.59952369E-03 -0.27749656E-03 -0.45611416E-03
 -0.32919070E-03 -0.67873694E-03 -0.12777313E-02
 -0.40995001E-04 -0.40997104E-03  0.26341803E-02
 -0.38510377E-02 -0.37749450E-03  0.20006888E-03
  0.75045164E-03 -0.83225474E-03  0.23664977E-02
 -0.20320128E-02  0.12039795E-02 -0.49997550E-04
  0.28042696E-02 -0.18749719E-03  0.71049601E-03
  0.12144917E-02  0.46881580E-03  0.10661549E-02
  0.99170154E-03 -0.95628456E-03 -0.22020343E-02
  0.19982539E-02  0.25344798E-03 -0.20266687E-02
  0.10452282E-03 -0.36230045E-03 -0.28917870E-02
  0.67616291E-04  0.12522594E-02 -0.39912373E-03
 -0.27983093E-02 -0.20324566E-03 -0.17243756E-02
  0.69752378E-03 -0.55743258E-03 -0.52047167E-03
 -0.23974493E-02  0.15054430E-02  0.21574717E-02
  0.93851971E-03  0.45377348E-02  0.18820717E-02
  0.86813186E-03  0.27051697E-03 -0.75727528E-03
 -0.30366155E-02  0.11542790E-02  0.11987975E-02
 -0.12189732E-02 -0.49066565E-03  0.35309235E-02
 -0.92732703E-03  0.37003821E-03  0.14149799E-02
  0.57947029E-02  0.13595741E-02 -0.17193307E-02
 -0.23569910E-02  0.35139369E-02  0.15183326E-02
  0.13910914E-02  0.18314426E-03 -0.23133957E-03
  0.11322002E-02  0.24026602E-02 -0.36557278E-03
 -0.27917105E-02  0.10502378E-03 -0.43356721E-04
  0.16265731E-02 -0.31877450E-02  0.72309960E-03
  0.11424123E-02  0.13573307E-02  0.12853001E-02
  0.62756515E-03  0.20761360E-02 -0.37533991E-03
 -0.20429941E-02  0.75617811E-04 -0.20214400E-02
  0.65404473E-03  0.12365427E-02 -0.69823555E-03
 -0.19678973E-02 -0.11242946E-02 -0.34877071E-04
  0.31854654E-03 -0.21341936E-02  0.21144446E-02
  0.17744477E-02 -0.65616029E-03  0.50020502E-03
 -0.22884120E-02  0.17951858E-02 -0.22983540E-03
 -0.68077277E-03  0.33034228E-04  0.83207552E-03
  0.20041209E-03  0.14678514E-02  0.14400081E-03
  0.64259466E-03  0.25571626E-02  0.37522300E-03
  0.14928834E-02  0.67930432E-04 -0.41205556E-02
  0.21559039E-02  0.23291195E-03  0.98857011E-03
  0.25863413E-03 -0.15677292E-02  0.19238862E-02
 -0.54999561E-03  0.62631089E-03  0.30308617E-04
  0.24973921E-02  0.88136187E-03 -0.65737667E-03
 -0.61165820E-03  0.13924303E-02 -0.16028458E-02
  0.13406308E-03  0.62572262E-03 -0.26889482E-02
 -0.43283178E-03 -0.13269071E-02 -0.19282372E-02
  0.18929565E-02 -0.16469378E-03 -0.38608188E-04
 -0.22559099E-02 -0.23451425E-02  0.24054871E-02
  0.12845483E-02 -0.21069457E-03  0.25056963E-02
 -0.56710241E-02 -0.59375070E-02  0.32754400E-02
  0.31986617E-02 -0.33916684E-02 -0.46248495E-02
 -0.10982067E-02 -0.41977266E-02 -0.93353395E-03
  0.79259526E-03 -0.54026402E-02 -0.26909025E-02
  0.13302950E-02  0.72492479E-03  0.57173011E-02
  0.63618116E-02 -0.11615579E-02 -0.64487055E-02
  0.42386125E-04 -0.13063757E-02 -0.26438059E-02
 -0.24481407E-02 -0.26541523E-02  0.92256560E-02
 -0.33757097E-02  0.31208883E-02  0.23854332E-02
  0.57618195E-02 -0.87685698E-02  0.22286808E-02
 -0.20249576E-02 -0.43299573E-02 -0.16120628E-02
 -0.27698607E-03  0.65021141E-02 -0.14277510E-02
 -0.14281346E-02 -0.42883055E-03  0.95221822E-03
 -0.31761746E-02 -0.44557115E-03  0.60229491E-03
  0.10431330E-02  0.79817119E-03 -0.70652148E-03
 -0.58943370E-03  0.52036154E-02  0.22506960E-03
  0.32035745E-02  0.34153468E-02 -0.46517519E-02
  0.60804443E-04 -0.11742998E-02  0.37664912E-02
  0.63110265E-02  0.10430516E-03  0.74819320E-02
 -0.26678663E-02 -0.48098081E-03 -0.42298472E-02
  0.14130827E-02 -0.35805550E-03 -0.21528785E-02
  0.46745761E-04 -0.22452679E-02  0.57479932E-02
 -0.61347069E-02  0.27018136E-02 -0.22443395E-03
  0.16421971E-03  0.41990521E-02  0.20795789E-02
 -0.54126851E-02 -0.40872453E-02 -0.22646522E-02
 
           1
   2.00000000000000     
 -0.29774975E-01 -0.12685657E-02 -0.12367190E-02 -0.28522333E-01
  0.31991111E+00  0.33989321E+00  0.28546213E-01
  0.21966194E+00  0.10840060E+00  0.10760491E+00
  0.11424854E+00  0.22604182E+00  0.18816184E+00
  0.99531339E+00  0.92538031E-02  0.27827593E+00
  0.31826757E+00  0.17142741E+00  0.20125798E-01
  0.22150189E+00  0.27183584E+00  0.10862124E+00
  0.11303429E+00  0.61744671E-01  0.19661645E+00
  0.80500731E-03  0.17691593E+00  0.26660789E+00
  0.66039202E+00  0.34325035E+00  0.29719881E-01
  0.54528966E+00  0.11467838E+00  0.10752136E+00
  0.43226935E+00  0.21457484E+00  0.19087879E+00
  0.33844214E+00  0.56009660E-02  0.27035882E+00
  0.65400883E+00  0.16968361E+00  0.25554363E-01
  0.54695458E+00  0.28693707E+00  0.11139932E+00
  0.44111151E+00  0.63464305E-01  0.18988033E+00
  0.32887459E+00  0.16196505E+00  0.27548763E+00
  0.99150477E+00  0.32595470E+00  0.27502936E-01
  0.89221517E+00  0.11871328E+00  0.11363390E+00
  0.77018456E+00  0.22039703E+00  0.18755473E+00
  0.65908427E+00  0.35086081E-02  0.27078075E+00
  0.98605112E+00  0.16191295E+00  0.30643975E-01
  0.88230016E+00  0.28137374E+00  0.10892684E+00
  0.76755741E+00  0.58188140E-01  0.18695368E+00
  0.67558951E+00  0.16744410E+00  0.26884128E+00
  0.32507352E+00  0.66290404E+00  0.30376290E-01
  0.22242375E+00  0.44562992E+00  0.11381977E+00
  0.11895251E+00  0.56994480E+00  0.18639290E+00
  0.99332156E+00  0.33746526E+00  0.26869208E+00
  0.32474280E+00  0.50355927E+00  0.35369548E-01
  0.22014913E+00  0.61582992E+00  0.10703406E+00
  0.11335118E+00  0.40194621E+00  0.19128999E+00
  0.99899850E+00  0.50537552E+00  0.27044887E+00
  0.65511762E+00  0.67084821E+00  0.28312027E-01
  0.54550072E+00  0.44759852E+00  0.10944241E+00
  0.43917838E+00  0.56030605E+00  0.18764142E+00
  0.33767932E+00  0.33563231E+00  0.27173002E+00
  0.65636839E+00  0.50568414E+00  0.33268879E-01
  0.54567671E+00  0.61178964E+00  0.11115168E+00
  0.43953532E+00  0.38251936E+00  0.19062668E+00
  0.33465470E+00  0.50281762E+00  0.27341270E+00
  0.98814402E+00  0.65954184E+00  0.22799354E-01
  0.87987655E+00  0.45028798E+00  0.10690183E+00
  0.77912731E+00  0.55462041E+00  0.18763340E+00
  0.66929616E+00  0.34066929E+00  0.26635490E+00
  0.98546946E+00  0.49549308E+00  0.26142753E-01
  0.88647949E+00  0.62087639E+00  0.10689557E+00
  0.77635769E+00  0.39520635E+00  0.18548935E+00
  0.66658980E+00  0.50771938E+00  0.26833047E+00
  0.32430261E+00  0.22900748E-02  0.25622212E-01
  0.20910414E+00  0.78309699E+00  0.10295796E+00
  0.10168841E+00  0.89932493E+00  0.19173983E+00
  0.90531167E-02  0.68363517E+00  0.26710960E+00
  0.31304990E+00  0.83187970E+00  0.19970679E-01
  0.21626879E+00  0.94650265E+00  0.10732778E+00
  0.10604663E+00  0.72752423E+00  0.18555302E+00
  0.98272868E+00  0.82805621E+00  0.27792173E+00
  0.65451000E+00  0.43280453E-02  0.30228737E-01
  0.54714555E+00  0.78473045E+00  0.11406858E+00
  0.43890312E+00  0.89755741E+00  0.18777385E+00
  0.32497745E+00  0.67349611E+00  0.27277866E+00
  0.65129016E+00  0.83618697E+00  0.25826323E-01
  0.54599906E+00  0.94954170E+00  0.10411095E+00
  0.42871028E+00  0.71916773E+00  0.19236361E+00
  0.33607623E+00  0.84229745E+00  0.26809901E+00
  0.97981604E+00  0.99674773E+00  0.22548594E-01
  0.86815959E+00  0.76770741E+00  0.11026436E+00
  0.76298509E+00  0.89544357E+00  0.19106735E+00
  0.65017313E+00  0.66159715E+00  0.27016723E+00
  0.97775451E+00  0.83499849E+00  0.24954731E-01
  0.88222592E+00  0.95305293E+00  0.11033497E+00
  0.77043428E+00  0.72435439E+00  0.18979595E+00
  0.66264846E+00  0.83918323E+00  0.27234108E+00
  0.96827411E+00  0.93884730E+00  0.39286919E+00
  0.22671321E+00  0.96713660E+00  0.34612717E+00
  0.40047471E+00  0.97055045E+00  0.35341708E+00
  0.63131097E+00  0.71725503E-01  0.35548540E+00
  0.89787450E+00  0.13255271E+00  0.34891722E+00
  0.92189955E-01  0.20601546E+00  0.35195651E+00
  0.20100085E+00  0.12534317E+00  0.39424718E+00
  0.42746402E+00  0.15453721E+00  0.34764811E+00
  0.62023644E+00  0.22460886E+00  0.34719189E+00
  0.80591871E+00  0.24713498E+00  0.33800401E+00
  0.11395548E+00  0.40304877E+00  0.35723861E+00
  0.26984780E+00  0.36344537E+00  0.35528836E+00
  0.43982640E+00  0.37041060E+00  0.36035368E+00
  0.68887503E+00  0.43704470E+00  0.35047736E+00
  0.88346701E+00  0.44156540E+00  0.34991484E+00
  0.43932596E-01  0.61944112E+00  0.41698206E+00
  0.19995955E+00  0.60946704E+00  0.34631299E+00
  0.38108173E+00  0.60099005E+00  0.35023352E+00
  0.53780941E+00  0.59114393E+00  0.35107044E+00
  0.88372442E+00  0.62878403E+00  0.34919991E+00
  0.36525209E-01  0.81896476E+00  0.41885530E+00
  0.20646905E+00  0.79568814E+00  0.34675987E+00
  0.37495837E+00  0.78191668E+00  0.35119974E+00
  0.56021401E+00  0.78313547E+00  0.35662198E+00
  0.76479701E+00  0.68422372E+00  0.35427804E+00
  0.15891186E+00  0.16655790E+00  0.29026316E-01
  0.46290150E-01  0.27044500E+00  0.10977985E+00
  0.26626518E+00  0.54062450E-01  0.19496035E+00
  0.16087616E+00  0.17727136E+00  0.27431163E+00
  0.16300696E+00  0.34724394E+00  0.34479837E-01
  0.55426398E-01  0.10790449E+00  0.10905978E+00
  0.27684209E+00  0.22693533E+00  0.19874298E+00
  0.16504431E+00  0.15861854E-01  0.27077953E+00
  0.49215805E+00  0.16675517E+00  0.34796976E-01
  0.37632964E+00  0.27045539E+00  0.10847526E+00
  0.59817019E+00  0.64037968E-01  0.19084760E+00
  0.51121274E+00  0.18766049E+00  0.26752525E+00
  0.49143441E+00  0.33259256E+00  0.33513575E-01
  0.38282668E+00  0.11333630E+00  0.10625803E+00
  0.61032812E+00  0.23083043E+00  0.18639599E+00
  0.50181060E+00  0.16486766E-01  0.27269823E+00
  0.81772687E+00  0.17539066E+00  0.25962363E-01
  0.71448771E+00  0.27826048E+00  0.10360648E+00
  0.94784457E+00  0.64834230E-01  0.18917364E+00
  0.83983647E+00  0.17861576E+00  0.26252232E+00
  0.82012209E+00  0.33617434E+00  0.29240768E-01
  0.71257191E+00  0.11836926E+00  0.10548270E+00
  0.93786626E+00  0.22240122E+00  0.18658643E+00
  0.83555939E+00  0.18132189E-01  0.26621994E+00
  0.16263917E+00  0.50527174E+00  0.31471020E-01
  0.57303693E-01  0.61599433E+00  0.10894850E+00
  0.27672574E+00  0.38318447E+00  0.19114325E+00
  0.16320131E+00  0.50271080E+00  0.26923490E+00
  0.15008987E+00  0.65917036E+00  0.28808080E-01
  0.54594499E-01  0.44772795E+00  0.10722758E+00
  0.26931006E+00  0.55237403E+00  0.19308021E+00
  0.16790187E+00  0.34034408E+00  0.27946431E+00
  0.48629946E+00  0.50743006E+00  0.32226985E-01
  0.38101464E+00  0.61777149E+00  0.11415436E+00
  0.61076062E+00  0.39493406E+00  0.19006516E+00
  0.49830206E+00  0.49790873E+00  0.26578404E+00
  0.48650831E+00  0.67397447E+00  0.36707355E-01
  0.38126404E+00  0.45536581E+00  0.11004634E+00
  0.60287449E+00  0.55422104E+00  0.18841321E+00
  0.50365603E+00  0.34283436E+00  0.27232777E+00
  0.83021196E+00  0.50519528E+00  0.31691974E-01
  0.70886701E+00  0.61004394E+00  0.11313013E+00
  0.94278129E+00  0.40319056E+00  0.18403594E+00
  0.83403940E+00  0.51109711E+00  0.27159704E+00
  0.81406677E+00  0.65765878E+00  0.30107187E-01
  0.71813146E+00  0.44893618E+00  0.11078845E+00
  0.93802946E+00  0.55481369E+00  0.18975125E+00
  0.83644606E+00  0.34516707E+00  0.26552351E+00
  0.14087501E+00  0.83074221E+00  0.25527955E-01
  0.47821632E-01  0.94797482E+00  0.10690185E+00
  0.26999629E+00  0.73081815E+00  0.18753694E+00
  0.16969122E+00  0.85813033E+00  0.26888656E+00
  0.15130442E+00  0.31424653E-02  0.28189526E-01
  0.46920266E-01  0.78715023E+00  0.10631424E+00
  0.27856431E+00  0.89861829E+00  0.19149383E+00
  0.16801518E+00  0.67926142E+00  0.26707935E+00
  0.48808555E+00  0.83946250E+00  0.30069602E-01
  0.37859382E+00  0.94641494E+00  0.10423194E+00
  0.60009698E+00  0.72304121E+00  0.19319711E+00
  0.49587335E+00  0.83605958E+00  0.27429881E+00
  0.48169104E+00  0.99547830E+00  0.27043940E-01
  0.38245918E+00  0.78694284E+00  0.10667901E+00
  0.59604652E+00  0.89150714E+00  0.19321566E+00
  0.50239052E+00  0.67247243E+00  0.27224646E+00
  0.81595084E+00  0.83830804E+00  0.35243790E-01
  0.71007415E+00  0.95308189E+00  0.10799449E+00